This is Ipopt version 3.12.13, running with linear solver ma57.

Number of nonzeros in equality constraint Jacobian...:        0
Number of nonzeros in inequality constraint Jacobian.:     9144
Number of nonzeros in Lagrangian Hessian.............:       21

Total number of variables............................:        6
                     variables with only lower bounds:        0
                variables with lower and upper bounds:        6
                     variables with only upper bounds:        0
Total number of equality constraints.................:        0
Total number of inequality constraints...............:     1524
        inequality constraints with only lower bounds:        0
   inequality constraints with lower and upper bounds:        0
        inequality constraints with only upper bounds:     1524

iter    objective    inf_pr   inf_du lg(mu)  ||d||  lg(rg) alpha_du alpha_pr  ls
   0  9.0015470e-02 0.00e+00 9.58e+00   0.0 0.00e+00    -  0.00e+00 0.00e+00   0
   1  8.8845179e-02 0.00e+00 2.97e-02  -5.1 1.06e-02    -  9.70e-01 1.00e+00f  1
   2  6.0208834e-02 0.00e+00 1.05e-02  -6.7 2.78e-01    -  6.51e-01 1.00e+00h  1
   3  3.8524528e-02 0.00e+00 2.57e-03  -3.2 4.08e-01    -  7.52e-01 8.91e-01h  1
   4  2.8013036e-02 0.00e+00 2.74e-04  -3.6 1.94e-01    -  9.90e-01 1.00e+00h  1
   5  2.6173969e-02 0.00e+00 2.56e-03  -4.4 7.99e-02    -  9.93e-01 7.47e-01h  1
   6  2.5590775e-02 0.00e+00 1.08e-04  -5.7 5.35e-02    -  1.00e+00 9.77e-01h  1
   7  2.5514014e-02 0.00e+00 4.44e-10  -7.8 1.47e-02    -  1.00e+00 1.00e+00h  1
   8  2.5507679e-02 0.00e+00 6.16e-08 -11.0 1.87e-03    -  9.99e-01 1.00e+00h  1
   9  2.5507569e-02 0.00e+00 6.46e-14 -11.0 3.44e-05    -  1.00e+00 1.00e+00h  1

Number of Iterations....: 9

                                   (scaled)                 (unscaled)
Objective...............:   2.5507569301191274e-02    2.5507569301191274e-02
Dual infeasibility......:   6.4567433468949887e-14    6.4567433468949887e-14
Constraint violation....:   0.0000000000000000e+00    0.0000000000000000e+00
Complementarity.........:   4.9160589743606657e-11    4.9160589743606657e-11
Overall NLP error.......:   4.9160589743606657e-11    4.9160589743606657e-11


Number of objective function evaluations             = 10
Number of objective gradient evaluations             = 10
Number of equality constraint evaluations            = 0
Number of inequality constraint evaluations          = 10
Number of equality constraint Jacobian evaluations   = 0
Number of inequality constraint Jacobian evaluations = 10
Number of Lagrangian Hessian evaluations             = 9
Total CPU secs in IPOPT (w/o function evaluations)   =      0.043
Total CPU secs in NLP function evaluations           =      0.057

EXIT: Optimal Solution Found.
